p cnf 966 2481
51 -2 -1 0
-51 2 0
-51 1 0
52 -51 -699 0
-52 51 0
-52 699 0
53 -5 -4 0
-53 5 0
-53 4 0
54 -53 -700 0
-54 53 0
-54 700 0
55 -701 -702 0
-55 701 0
-55 702 0
56 -7 -703 0
-56 7 0
-56 703 0
57 -56 -704 0
-57 56 0
-57 704 0
58 -705 -55 0
-58 705 0
-58 55 0
59 -706 -707 0
-59 706 0
-59 707 0
60 -59 -11 0
-60 59 0
-60 11 0
61 -708 -58 0
-61 708 0
-61 58 0
62 -13 -12 0
-62 13 0
-62 12 0
63 -62 -14 0
-63 62 0
-63 14 0
64 -709 -61 0
-64 709 0
-64 61 0
65 -710 -711 0
-65 710 0
-65 711 0
66 -65 -712 0
-66 65 0
-66 712 0
67 -713 -64 0
-67 713 0
-67 64 0
68 -18 -17 0
-68 18 0
-68 17 0
69 -68 -19 0
-69 68 0
-69 19 0
70 -714 -67 0
-70 714 0
-70 67 0
71 -21 -20 0
-71 21 0
-71 20 0
72 -71 -22 0
-72 71 0
-72 22 0
73 -715 -70 0
-73 715 0
-73 70 0
74 -24 -23 0
-74 24 0
-74 23 0
75 -74 -700 0
-75 74 0
-75 700 0
76 -716 -73 0
-76 716 0
-76 73 0
77 -717 -25 0
-77 717 0
-77 25 0
78 -77 -718 0
-78 77 0
-78 718 0
79 -719 -76 0
-79 719 0
-79 76 0
80 -720 -2 0
-80 720 0
-80 2 0
81 -80 -28 0
-81 80 0
-81 28 0
82 -721 -79 0
-82 721 0
-82 79 0
83 -722 -723 0
-83 722 0
-83 723 0
84 -83 -724 0
-84 83 0
-84 724 0
85 -725 -82 0
-85 725 0
-85 82 0
86 -30 -726 0
-86 30 0
-86 726 0
87 -86 -14 0
-87 86 0
-87 14 0
88 -727 -85 0
-88 727 0
-88 85 0
89 -19 -710 0
-89 19 0
-89 710 0
90 -89 -8 0
-90 89 0
-90 8 0
91 -728 -88 0
-91 728 0
-91 88 0
92 -729 -703 0
-92 729 0
-92 703 0
93 -92 -730 0
-93 92 0
-93 730 0
94 -731 -91 0
-94 731 0
-94 91 0
95 -30 -1 0
-95 30 0
-95 1 0
96 -95 -720 0
-96 95 0
-96 720 0
97 -732 -94 0
-97 732 0
-97 94 0
98 -733 -31 0
-98 733 0
-98 31 0
99 -98 -21 0
-99 98 0
-99 21 0
100 -734 -97 0
-100 734 0
-100 97 0
101 -34 -33 0
-101 34 0
-101 33 0
102 -101 -28 0
-102 101 0
-102 28 0
103 -735 -100 0
-103 735 0
-103 100 0
104 -35 -19 0
-104 35 0
-104 19 0
105 -104 -32 0
-105 104 0
-105 32 0
106 -736 -103 0
-106 736 0
-106 103 0
107 -737 -15 0
-107 737 0
-107 15 0
108 -107 -738 0
-108 107 0
-108 738 0
109 -739 -106 0
-109 739 0
-109 106 0
110 -740 -741 0
-110 740 0
-110 741 0
111 -110 -703 0
-111 110 0
-111 703 0
112 -742 -109 0
-112 742 0
-112 109 0
113 -741 -16 0
-113 741 0
-113 16 0
114 -113 -38 0
-114 113 0
-114 38 0
115 -743 -112 0
-115 743 0
-115 112 0
116 -744 -745 0
-116 744 0
-116 745 0
117 -116 -746 0
-117 116 0
-117 746 0
118 -747 -115 0
-118 747 0
-118 115 0
119 -745 -30 0
-119 745 0
-119 30 0
120 -119 -13 0
-120 119 0
-120 13 0
121 -748 -118 0
-121 748 0
-121 118 0
122 -749 -707 0
-122 749 0
-122 707 0
123 -122 -4 0
-123 122 0
-123 4 0
124 -750 -121 0
-124 750 0
-124 121 0
125 -738 -5 0
-125 738 0
-125 5 0
126 -125 -699 0
-126 125 0
-126 699 0
127 -751 -124 0
-127 751 0
-127 124 0
128 -37 -729 0
-128 37 0
-128 729 0
129 -128 -703 0
-129 128 0
-129 703 0
130 -752 -127 0
-130 752 0
-130 127 0
131 -34 -11 0
-131 34 0
-131 11 0
132 -131 -712 0
-132 131 0
-132 712 0
133 -753 -130 0
-133 753 0
-133 130 0
134 -42 -754 0
-134 42 0
-134 754 0
135 -134 -737 0
-135 134 0
-135 737 0
136 -755 -133 0
-136 755 0
-136 133 0
137 -27 -22 0
-137 27 0
-137 22 0
138 -137 -28 0
-138 137 0
-138 28 0
139 -756 -136 0
-139 756 0
-139 136 0
140 -43 -40 0
-140 43 0
-140 40 0
141 -140 -14 0
-141 140 0
-141 14 0
142 -757 -139 0
-142 757 0
-142 139 0
143 -33 -11 0
-143 33 0
-143 11 0
144 -143 -729 0
-144 143 0
-144 729 0
145 -758 -142 0
-145 758 0
-145 142 0
146 -759 -722 0
-146 759 0
-146 722 0
147 -146 -3 0
-147 146 0
-147 3 0
148 -760 -145 0
-148 760 0
-148 145 0
149 -11 -761 0
-149 11 0
-149 761 0
150 -149 -762 0
-150 149 0
-150 762 0
151 -763 -148 0
-151 763 0
-151 148 0
152 -764 -25 0
-152 764 0
-152 25 0
153 -152 -14 0
-153 152 0
-153 14 0
154 -765 -151 0
-154 765 0
-154 151 0
155 -15 -704 0
-155 15 0
-155 704 0
156 -155 -3 0
-156 155 0
-156 3 0
157 -766 -154 0
-157 766 0
-157 154 0
158 -42 -27 0
-158 42 0
-158 27 0
159 -158 -8 0
-159 158 0
-159 8 0
160 -767 -157 0
-160 767 0
-160 157 0
161 -15 -706 0
-161 15 0
-161 706 0
162 -161 -768 0
-162 161 0
-162 768 0
163 -769 -160 0
-163 769 0
-163 160 0
164 -749 -722 0
-164 749 0
-164 722 0
165 -164 -26 0
-165 164 0
-165 26 0
166 -770 -163 0
-166 770 0
-166 163 0
167 -749 -771 0
-167 749 0
-167 771 0
168 -167 -8 0
-168 167 0
-168 8 0
169 -772 -166 0
-169 772 0
-169 166 0
170 -33 -771 0
-170 33 0
-170 771 0
171 -170 -16 0
-171 170 0
-171 16 0
172 -773 -169 0
-172 773 0
-172 169 0
173 -744 -26 0
-173 744 0
-173 26 0
174 -173 -28 0
-174 173 0
-174 28 0
175 -774 -172 0
-175 774 0
-175 172 0
176 -741 -9 0
-176 741 0
-176 9 0
177 -176 -27 0
-177 176 0
-177 27 0
178 -775 -175 0
-178 775 0
-178 175 0
179 -776 -777 0
-179 776 0
-179 777 0
180 -179 -45 0
-180 179 0
-180 45 0
181 -778 -178 0
-181 778 0
-181 178 0
182 -779 -706 0
-182 779 0
-182 706 0
183 -182 -40 0
-183 182 0
-183 40 0
184 -780 -181 0
-184 780 0
-184 181 0
185 -29 -18 0
-185 29 0
-185 18 0
186 -185 -21 0
-186 185 0
-186 21 0
187 -781 -184 0
-187 781 0
-187 184 0
188 -20 -7 0
-188 20 0
-188 7 0
189 -188 -744 0
-189 188 0
-189 744 0
190 -782 -187 0
-190 782 0
-190 187 0
191 -764 -4 0
-191 764 0
-191 4 0
192 -191 -783 0
-192 191 0
-192 783 0
193 -784 -190 0
-193 784 0
-193 190 0
194 -45 -706 0
-194 45 0
-194 706 0
195 -194 -712 0
-195 194 0
-195 712 0
196 -785 -193 0
-196 785 0
-196 193 0
197 -786 -759 0
-197 786 0
-197 759 0
198 -197 -34 0
-198 197 0
-198 34 0
199 -787 -196 0
-199 787 0
-199 196 0
200 -39 -30 0
-200 39 0
-200 30 0
201 -200 -14 0
-201 200 0
-201 14 0
202 -788 -199 0
-202 788 0
-202 199 0
203 -122 -789 0
-203 122 0
-203 789 0
204 -790 -202 0
-204 790 0
-204 202 0
205 -741 -761 0
-205 741 0
-205 761 0
206 -205 -768 0
-206 205 0
-206 768 0
207 -791 -204 0
-207 791 0
-207 204 0
208 -792 -779 0
-208 792 0
-208 779 0
209 -208 -36 0
-209 208 0
-209 36 0
210 -793 -207 0
-210 793 0
-210 207 0
211 -43 -738 0
-211 43 0
-211 738 0
212 -211 -794 0
-212 211 0
-212 794 0
213 -795 -210 0
-213 795 0
-213 210 0
214 -39 -779 0
-214 39 0
-214 779 0
215 -214 -717 0
-215 214 0
-215 717 0
216 -796 -213 0
-216 796 0
-216 213 0
217 -44 -40 0
-217 44 0
-217 40 0
218 -217 -31 0
-218 217 0
-218 31 0
219 -797 -216 0
-219 797 0
-219 216 0
220 -762 -3 0
-220 762 0
-220 3 0
221 -220 -794 0
-221 220 0
-221 794 0
222 -798 -219 0
-222 798 0
-222 219 0
223 -789 -707 0
-223 789 0
-223 707 0
224 -223 -14 0
-224 223 0
-224 14 0
225 -799 -222 0
-225 799 0
-225 222 0
226 -777 -749 0
-226 777 0
-226 749 0
227 -226 -800 0
-227 226 0
-227 800 0
228 -801 -225 0
-228 801 0
-228 225 0
229 -37 -779 0
-229 37 0
-229 779 0
230 -229 -800 0
-230 229 0
-230 800 0
231 -802 -228 0
-231 802 0
-231 228 0
232 -42 -703 0
-232 42 0
-232 703 0
233 -232 -720 0
-233 232 0
-233 720 0
234 -803 -231 0
-234 803 0
-234 231 0
235 -779 -711 0
-235 779 0
-235 711 0
236 -235 -8 0
-236 235 0
-236 8 0
237 -804 -234 0
-237 804 0
-237 234 0
238 -737 -19 0
-238 737 0
-238 19 0
239 -238 -794 0
-239 238 0
-239 794 0
240 -805 -237 0
-240 805 0
-240 237 0
241 -792 -726 0
-241 792 0
-241 726 0
242 -241 -6 0
-242 241 0
-242 6 0
243 -806 -240 0
-243 806 0
-243 240 0
244 -37 -807 0
-244 37 0
-244 807 0
245 -244 -22 0
-245 244 0
-245 22 0
246 -808 -243 0
-246 808 0
-246 243 0
247 -759 -15 0
-247 759 0
-247 15 0
248 -247 -733 0
-248 247 0
-248 733 0
249 -809 -246 0
-249 809 0
-249 246 0
250 -40 -724 0
-250 40 0
-250 724 0
251 -250 -807 0
-251 250 0
-251 807 0
252 -810 -249 0
-252 810 0
-252 249 0
253 -31 -723 0
-253 31 0
-253 723 0
254 -253 -711 0
-254 253 0
-254 711 0
255 -811 -252 0
-255 811 0
-255 252 0
256 -746 -724 0
-256 746 0
-256 724 0
257 -256 -32 0
-257 256 0
-257 32 0
258 -812 -255 0
-258 812 0
-258 255 0
259 -39 -717 0
-259 39 0
-259 717 0
260 -259 -24 0
-260 259 0
-260 24 0
261 -813 -258 0
-261 813 0
-261 258 0
262 -47 -703 0
-262 47 0
-262 703 0
263 -262 -814 0
-263 262 0
-263 814 0
264 -815 -261 0
-264 815 0
-264 261 0
265 -816 -4 0
-265 816 0
-265 4 0
266 -265 -762 0
-266 265 0
-266 762 0
267 -817 -264 0
-267 817 0
-267 264 0
268 -745 -26 0
-268 745 0
-268 26 0
269 -268 -6 0
-269 268 0
-269 6 0
270 -818 -267 0
-270 818 0
-270 267 0
271 -11 -707 0
-271 11 0
-271 707 0
272 -271 -4 0
-272 271 0
-272 4 0
273 -819 -270 0
-273 819 0
-273 270 0
274 -718 -717 0
-274 718 0
-274 717 0
275 -274 -720 0
-275 274 0
-275 720 0
276 -820 -273 0
-276 820 0
-276 273 0
277 -744 -723 0
-277 744 0
-277 723 0
278 -277 -36 0
-278 277 0
-278 36 0
279 -821 -276 0
-279 821 0
-279 276 0
280 -128 -24 0
-280 128 0
-280 24 0
281 -822 -279 0
-281 822 0
-281 279 0
282 -9 -5 0
-282 9 0
-282 5 0
283 -282 -27 0
-283 282 0
-283 27 0
284 -823 -281 0
-284 823 0
-284 281 0
285 -745 -7 0
-285 745 0
-285 7 0
286 -285 -38 0
-286 285 0
-286 38 0
287 -824 -284 0
-287 824 0
-287 284 0
288 -768 -15 0
-288 768 0
-288 15 0
289 -288 -738 0
-289 288 0
-289 738 0
290 -825 -287 0
-290 825 0
-290 287 0
291 -792 -29 0
-291 792 0
-291 29 0
292 -291 -32 0
-292 291 0
-292 32 0
293 -826 -290 0
-293 826 0
-293 290 0
294 -47 -745 0
-294 47 0
-294 745 0
295 -294 -768 0
-295 294 0
-295 768 0
296 -827 -293 0
-296 827 0
-296 293 0
297 -745 -17 0
-297 745 0
-297 17 0
298 -297 -724 0
-298 297 0
-298 724 0
299 -828 -296 0
-299 828 0
-299 296 0
300 -829 -43 0
-300 829 0
-300 43 0
301 -300 -38 0
-301 300 0
-301 38 0
302 -830 -299 0
-302 830 0
-302 299 0
303 -29 -779 0
-303 29 0
-303 779 0
304 -303 -814 0
-304 303 0
-304 814 0
305 -831 -302 0
-305 831 0
-305 302 0
306 -816 -711 0
-306 816 0
-306 711 0
307 -306 -14 0
-307 306 0
-307 14 0
308 -832 -305 0
-308 832 0
-308 305 0
309 -30 -26 0
-309 30 0
-309 26 0
310 -309 -789 0
-310 309 0
-310 789 0
311 -833 -308 0
-311 833 0
-311 308 0
312 -42 -1 0
-312 42 0
-312 1 0
313 -312 -699 0
-313 312 0
-313 699 0
314 -834 -311 0
-314 834 0
-314 311 0
315 -737 -779 0
-315 737 0
-315 779 0
316 -315 -14 0
-316 315 0
-316 14 0
317 -835 -314 0
-317 835 0
-317 314 0
318 -718 -712 0
-318 718 0
-318 712 0
319 -318 -24 0
-319 318 0
-319 24 0
320 -836 -317 0
-320 836 0
-320 317 0
321 -718 -7 0
-321 718 0
-321 7 0
322 -321 -768 0
-322 321 0
-322 768 0
323 -837 -320 0
-323 837 0
-323 320 0
324 -12 -10 0
-324 12 0
-324 10 0
325 -324 -746 0
-325 324 0
-325 746 0
326 -838 -323 0
-326 838 0
-326 323 0
327 -45 -710 0
-327 45 0
-327 710 0
328 -327 -724 0
-328 327 0
-328 724 0
329 -839 -326 0
-329 839 0
-329 326 0
330 -11 -723 0
-330 11 0
-330 723 0
331 -330 -729 0
-331 330 0
-331 729 0
332 -840 -329 0
-332 840 0
-332 329 0
333 -717 -707 0
-333 717 0
-333 707 0
334 -333 -733 0
-334 333 0
-334 733 0
335 -841 -332 0
-335 841 0
-335 332 0
336 -771 -11 0
-336 771 0
-336 11 0
337 -336 -2 0
-337 336 0
-337 2 0
338 -842 -335 0
-338 842 0
-338 335 0
339 -740 -33 0
-339 740 0
-339 33 0
340 -339 -3 0
-340 339 0
-340 3 0
341 -843 -338 0
-341 843 0
-341 338 0
342 -29 -20 0
-342 29 0
-342 20 0
343 -342 -783 0
-343 342 0
-343 783 0
344 -844 -341 0
-344 844 0
-344 341 0
345 -49 -30 0
-345 49 0
-345 30 0
346 -345 -741 0
-346 345 0
-346 741 0
347 -845 -344 0
-347 845 0
-347 344 0
348 -44 -710 0
-348 44 0
-348 710 0
349 -348 -807 0
-349 348 0
-349 807 0
350 -846 -347 0
-350 846 0
-350 347 0
351 -764 -759 0
-351 764 0
-351 759 0
352 -351 -38 0
-352 351 0
-352 38 0
353 -847 -350 0
-353 847 0
-353 350 0
354 -737 -720 0
-354 737 0
-354 720 0
355 -354 -6 0
-355 354 0
-355 6 0
356 -848 -353 0
-356 848 0
-356 353 0
357 -737 -20 0
-357 737 0
-357 20 0
358 -357 -717 0
-358 357 0
-358 717 0
359 -849 -356 0
-359 849 0
-359 356 0
360 -745 -4 0
-360 745 0
-360 4 0
361 -360 -792 0
-361 360 0
-361 792 0
362 -850 -359 0
-362 850 0
-362 359 0
363 -39 -768 0
-363 39 0
-363 768 0
364 -363 -794 0
-364 363 0
-364 794 0
365 -851 -362 0
-365 851 0
-365 362 0
366 -764 -26 0
-366 764 0
-366 26 0
367 -366 -700 0
-367 366 0
-367 700 0
368 -852 -365 0
-368 852 0
-368 365 0
369 -745 -1 0
-369 745 0
-369 1 0
370 -369 -720 0
-370 369 0
-370 720 0
371 -853 -368 0
-371 853 0
-371 368 0
372 -50 -717 0
-372 50 0
-372 717 0
373 -372 -24 0
-373 372 0
-373 24 0
374 -854 -371 0
-374 854 0
-374 371 0
375 -17 -12 0
-375 17 0
-375 12 0
376 -375 -768 0
-376 375 0
-376 768 0
377 -855 -374 0
-377 855 0
-377 374 0
378 -46 -737 0
-378 46 0
-378 737 0
379 -378 -27 0
-379 378 0
-379 27 0
380 -856 -377 0
-380 856 0
-380 377 0
381 -45 -10 0
-381 45 0
-381 10 0
382 -381 -13 0
-382 381 0
-382 13 0
383 -857 -380 0
-383 857 0
-383 380 0
384 -45 -44 0
-384 45 0
-384 44 0
385 -384 -2 0
-385 384 0
-385 2 0
386 -858 -383 0
-386 858 0
-386 383 0
387 -128 -21 0
-387 128 0
-387 21 0
388 -859 -386 0
-388 859 0
-388 386 0
389 -717 -712 0
-389 717 0
-389 712 0
390 -389 -3 0
-390 389 0
-390 3 0
391 -860 -388 0
-391 860 0
-391 388 0
392 -738 -27 0
-392 738 0
-392 27 0
393 -392 -14 0
-393 392 0
-393 14 0
394 -861 -391 0
-394 861 0
-394 391 0
395 -42 -718 0
-395 42 0
-395 718 0
396 -395 -14 0
-396 395 0
-396 14 0
397 -862 -394 0
-397 862 0
-397 394 0
398 -40 -759 0
-398 40 0
-398 759 0
399 -398 -1 0
-399 398 0
-399 1 0
400 -863 -397 0
-400 863 0
-400 397 0
401 -46 -740 0
-401 46 0
-401 740 0
402 -401 -1 0
-402 401 0
-402 1 0
403 -864 -400 0
-403 864 0
-403 400 0
404 -789 -711 0
-404 789 0
-404 711 0
405 -404 -800 0
-405 404 0
-405 800 0
406 -865 -403 0
-406 865 0
-406 403 0
407 -829 -759 0
-407 829 0
-407 759 0
408 -407 -21 0
-408 407 0
-408 21 0
409 -866 -406 0
-409 866 0
-409 406 0
410 -11 -10 0
-410 11 0
-410 10 0
411 -410 -29 0
-411 410 0
-411 29 0
412 -867 -409 0
-412 867 0
-412 409 0
413 -749 -25 0
-413 749 0
-413 25 0
414 -413 -49 0
-414 413 0
-414 49 0
415 -868 -412 0
-415 868 0
-415 412 0
416 -45 -42 0
-416 45 0
-416 42 0
417 -416 -41 0
-417 416 0
-417 41 0
418 -869 -415 0
-418 869 0
-418 415 0
419 -47 -764 0
-419 47 0
-419 764 0
420 -419 -34 0
-420 419 0
-420 34 0
421 -870 -418 0
-421 870 0
-421 418 0
422 -749 -15 0
-422 749 0
-422 15 0
423 -422 -871 0
-423 422 0
-423 871 0
424 -872 -421 0
-424 872 0
-424 421 0
425 -737 -729 0
-425 737 0
-425 729 0
426 -425 -711 0
-426 425 0
-426 711 0
427 -873 -424 0
-427 873 0
-427 424 0
428 -874 -723 0
-428 874 0
-428 723 0
429 -428 -717 0
-429 428 0
-429 717 0
430 -875 -427 0
-430 875 0
-430 427 0
431 -26 -703 0
-431 26 0
-431 703 0
432 -431 -14 0
-432 431 0
-432 14 0
433 -876 -430 0
-433 876 0
-433 430 0
434 -724 -779 0
-434 724 0
-434 779 0
435 -434 -800 0
-435 434 0
-435 800 0
436 -877 -433 0
-436 877 0
-436 433 0
437 -42 -717 0
-437 42 0
-437 717 0
438 -437 -31 0
-438 437 0
-438 31 0
439 -878 -436 0
-439 878 0
-439 436 0
440 -41 -737 0
-440 41 0
-440 737 0
441 -440 -733 0
-441 440 0
-441 733 0
442 -879 -439 0
-442 879 0
-442 439 0
443 -730 -5 0
-443 730 0
-443 5 0
444 -443 -794 0
-444 443 0
-444 794 0
445 -880 -442 0
-445 880 0
-445 442 0
446 -20 -703 0
-446 20 0
-446 703 0
447 -446 -38 0
-447 446 0
-447 38 0
448 -881 -445 0
-448 881 0
-448 445 0
449 -754 -726 0
-449 754 0
-449 726 0
450 -449 -22 0
-450 449 0
-450 22 0
451 -882 -448 0
-451 882 0
-451 448 0
452 -39 -871 0
-452 39 0
-452 871 0
453 -452 -768 0
-453 452 0
-453 768 0
454 -883 -451 0
-454 883 0
-454 451 0
455 -26 -15 0
-455 26 0
-455 15 0
456 -455 -871 0
-456 455 0
-456 871 0
457 -884 -454 0
-457 884 0
-457 454 0
458 -764 -744 0
-458 764 0
-458 744 0
459 -458 -700 0
-459 458 0
-459 700 0
460 -885 -457 0
-460 885 0
-460 457 0
461 -776 -18 0
-461 776 0
-461 18 0
462 -461 -27 0
-462 461 0
-462 27 0
463 -886 -460 0
-463 886 0
-463 460 0
464 -43 -749 0
-464 43 0
-464 749 0
465 -464 -807 0
-465 464 0
-465 807 0
466 -887 -463 0
-466 887 0
-466 463 0
467 -48 -722 0
-467 48 0
-467 722 0
468 -467 -740 0
-468 467 0
-468 740 0
469 -888 -466 0
-469 888 0
-469 466 0
470 -871 -710 0
-470 871 0
-470 710 0
471 -470 -720 0
-471 470 0
-471 720 0
472 -889 -469 0
-472 889 0
-472 469 0
473 -789 -7 0
-473 789 0
-473 7 0
474 -473 -762 0
-474 473 0
-474 762 0
475 -890 -472 0
-475 890 0
-475 472 0
476 -11 -706 0
-476 11 0
-476 706 0
477 -476 -744 0
-477 476 0
-477 744 0
478 -891 -475 0
-478 891 0
-478 475 0
479 -717 -9 0
-479 717 0
-479 9 0
480 -479 -41 0
-480 479 0
-480 41 0
481 -892 -478 0
-481 892 0
-481 478 0
482 -776 -762 0
-482 776 0
-482 762 0
483 -482 -3 0
-483 482 0
-483 3 0
484 -893 -481 0
-484 893 0
-484 481 0
485 -829 -12 0
-485 829 0
-485 12 0
486 -485 -24 0
-486 485 0
-486 24 0
487 -894 -484 0
-487 894 0
-487 484 0
488 -43 -746 0
-488 43 0
-488 746 0
489 -488 -28 0
-489 488 0
-489 28 0
490 -895 -487 0
-490 895 0
-490 487 0
491 -771 -707 0
-491 771 0
-491 707 0
492 -491 -20 0
-492 491 0
-492 20 0
493 -896 -490 0
-493 896 0
-493 490 0
494 -443 -14 0
-494 443 0
-494 14 0
495 -897 -493 0
-495 897 0
-495 493 0
496 -874 -41 0
-496 874 0
-496 41 0
497 -496 -27 0
-497 496 0
-497 27 0
498 -898 -495 0
-498 898 0
-498 495 0
499 -874 -30 0
-499 874 0
-499 30 0
500 -499 -724 0
-500 499 0
-500 724 0
501 -899 -498 0
-501 899 0
-501 498 0
502 -754 -4 0
-502 754 0
-502 4 0
503 -502 -829 0
-503 502 0
-503 829 0
504 -900 -501 0
-504 900 0
-504 501 0
505 -40 -717 0
-505 40 0
-505 717 0
506 -505 -712 0
-506 505 0
-506 712 0
507 -901 -504 0
-507 901 0
-507 504 0
508 -9 -8 0
-508 9 0
-508 8 0
509 -508 -38 0
-509 508 0
-509 38 0
510 -902 -507 0
-510 902 0
-510 507 0
511 -724 -18 0
-511 724 0
-511 18 0
512 -511 -36 0
-512 511 0
-512 36 0
513 -903 -510 0
-513 903 0
-513 510 0
514 -768 -871 0
-514 768 0
-514 871 0
515 -514 -699 0
-515 514 0
-515 699 0
516 -904 -513 0
-516 904 0
-516 513 0
517 -32 -723 0
-517 32 0
-517 723 0
518 -517 -800 0
-518 517 0
-518 800 0
519 -905 -516 0
-519 905 0
-519 516 0
520 -47 -744 0
-520 47 0
-520 744 0
521 -520 -16 0
-521 520 0
-521 16 0
522 -906 -519 0
-522 906 0
-522 519 0
523 -740 -29 0
-523 740 0
-523 29 0
524 -523 -726 0
-524 523 0
-524 726 0
525 -907 -522 0
-525 907 0
-525 522 0
526 -718 -17 0
-526 718 0
-526 17 0
527 -526 -738 0
-527 526 0
-527 738 0
528 -908 -525 0
-528 908 0
-528 525 0
529 -786 -768 0
-529 786 0
-529 768 0
530 -529 -814 0
-530 529 0
-530 814 0
531 -909 -528 0
-531 909 0
-531 528 0
532 -786 -25 0
-532 786 0
-532 25 0
533 -532 -761 0
-533 532 0
-533 761 0
534 -910 -531 0
-534 910 0
-534 531 0
535 -33 -703 0
-535 33 0
-535 703 0
536 -535 -2 0
-536 535 0
-536 2 0
537 -911 -534 0
-537 911 0
-537 534 0
538 -912 -49 0
-538 912 0
-538 49 0
539 -538 -829 0
-539 538 0
-539 829 0
540 -913 -537 0
-540 913 0
-540 537 0
541 -46 -759 0
-541 46 0
-541 759 0
542 -541 -704 0
-542 541 0
-542 704 0
543 -914 -540 0
-543 914 0
-543 540 0
544 -816 -726 0
-544 816 0
-544 726 0
545 -544 -762 0
-545 544 0
-545 762 0
546 -915 -543 0
-546 915 0
-546 543 0
547 -44 -729 0
-547 44 0
-547 729 0
548 -547 -807 0
-548 547 0
-548 807 0
549 -916 -546 0
-549 916 0
-549 546 0
550 -717 -10 0
-550 717 0
-550 10 0
551 -550 -712 0
-551 550 0
-551 712 0
552 -917 -549 0
-552 917 0
-552 549 0
553 -776 -33 0
-553 776 0
-553 33 0
554 -553 -21 0
-554 553 0
-554 21 0
555 -918 -552 0
-555 918 0
-555 552 0
556 -726 -807 0
-556 726 0
-556 807 0
557 -556 -720 0
-557 556 0
-557 720 0
558 -919 -555 0
-558 919 0
-558 555 0
559 -816 -745 0
-559 816 0
-559 745 0
560 -559 -730 0
-560 559 0
-560 730 0
561 -920 -558 0
-561 920 0
-561 558 0
562 -710 -2 0
-562 710 0
-562 2 0
563 -562 -13 0
-563 562 0
-563 13 0
564 -921 -561 0
-564 921 0
-564 561 0
565 -42 -723 0
-565 42 0
-565 723 0
566 -565 -703 0
-566 565 0
-566 703 0
567 -922 -564 0
-567 922 0
-567 564 0
568 -39 -707 0
-568 39 0
-568 707 0
569 -568 -829 0
-569 568 0
-569 829 0
570 -923 -567 0
-570 923 0
-570 567 0
571 -724 -6 0
-571 724 0
-571 6 0
572 -571 -783 0
-572 571 0
-572 783 0
573 -924 -570 0
-573 924 0
-573 570 0
574 -36 -4 0
-574 36 0
-574 4 0
575 -574 -783 0
-575 574 0
-575 783 0
576 -925 -573 0
-576 925 0
-576 573 0
577 -37 -761 0
-577 37 0
-577 761 0
578 -577 -871 0
-578 577 0
-578 871 0
579 -926 -576 0
-579 926 0
-579 576 0
580 -46 -779 0
-580 46 0
-580 779 0
581 -580 -19 0
-581 580 0
-581 19 0
582 -927 -579 0
-582 927 0
-582 579 0
583 -46 -749 0
-583 46 0
-583 749 0
584 -583 -36 0
-584 583 0
-584 36 0
585 -928 -582 0
-585 928 0
-585 582 0
586 -746 -13 0
-586 746 0
-586 13 0
587 -586 -38 0
-587 586 0
-587 38 0
588 -929 -585 0
-588 929 0
-588 585 0
589 -29 -8 0
-589 29 0
-589 8 0
590 -589 -3 0
-590 589 0
-590 3 0
591 -930 -588 0
-591 930 0
-591 588 0
592 -776 -729 0
-592 776 0
-592 729 0
593 -592 -718 0
-593 592 0
-593 718 0
594 -931 -591 0
-594 931 0
-594 591 0
595 -874 -771 0
-595 874 0
-595 771 0
596 -595 -710 0
-596 595 0
-596 710 0
597 -932 -594 0
-597 932 0
-597 594 0
598 -759 -12 0
-598 759 0
-598 12 0
599 -598 -38 0
-599 598 0
-599 38 0
600 -933 -597 0
-600 933 0
-600 597 0
601 -871 -729 0
-601 871 0
-601 729 0
602 -601 -29 0
-602 601 0
-602 29 0
603 -934 -600 0
-603 934 0
-603 600 0
604 -874 -23 0
-604 874 0
-604 23 0
605 -604 -21 0
-605 604 0
-605 21 0
606 -935 -603 0
-606 935 0
-606 603 0
607 -41 -722 0
-607 41 0
-607 722 0
608 -607 -5 0
-608 607 0
-608 5 0
609 -936 -606 0
-609 936 0
-609 606 0
610 -786 -754 0
-610 786 0
-610 754 0
611 -610 -712 0
-611 610 0
-611 712 0
612 -937 -609 0
-612 937 0
-612 609 0
613 -50 -1 0
-613 50 0
-613 1 0
614 -613 -733 0
-614 613 0
-614 733 0
615 -938 -612 0
-615 938 0
-615 612 0
616 -37 -722 0
-616 37 0
-616 722 0
617 -616 -699 0
-617 616 0
-617 699 0
618 -939 -615 0
-618 939 0
-618 615 0
619 -912 -720 0
-619 912 0
-619 720 0
620 -619 -22 0
-620 619 0
-620 22 0
621 -940 -618 0
-621 940 0
-621 618 0
622 -871 -807 0
-622 871 0
-622 807 0
623 -622 -38 0
-623 622 0
-623 38 0
624 -941 -621 0
-624 941 0
-624 621 0
625 -807 -779 0
-625 807 0
-625 779 0
626 -625 -24 0
-626 625 0
-626 24 0
627 -942 -624 0
-627 942 0
-627 624 0
628 -740 -771 0
-628 740 0
-628 771 0
629 -628 -814 0
-629 628 0
-629 814 0
630 -943 -627 0
-630 943 0
-630 627 0
631 -745 -36 0
-631 745 0
-631 36 0
632 -631 -6 0
-632 631 0
-632 6 0
633 -944 -630 0
-633 944 0
-633 630 0
634 -779 -7 0
-634 779 0
-634 7 0
635 -634 -42 0
-635 634 0
-635 42 0
636 -945 -633 0
-636 945 0
-636 633 0
637 -779 -761 0
-637 779 0
-637 761 0
638 -637 -20 0
-638 637 0
-638 20 0
639 -946 -636 0
-639 946 0
-639 636 0
640 -27 -7 0
-640 27 0
-640 7 0
641 -640 -14 0
-641 640 0
-641 14 0
642 -947 -639 0
-642 947 0
-642 639 0
643 -912 -35 0
-643 912 0
-643 35 0
644 -643 -28 0
-644 643 0
-644 28 0
645 -948 -642 0
-645 948 0
-645 642 0
646 -32 -700 0
-646 32 0
-646 700 0
647 -646 -3 0
-647 646 0
-647 3 0
648 -949 -645 0
-648 949 0
-648 645 0
649 -874 -871 0
-649 874 0
-649 871 0
650 -649 -14 0
-650 649 0
-650 14 0
651 -950 -648 0
-651 950 0
-651 648 0
652 -776 -707 0
-652 776 0
-652 707 0
653 -652 -720 0
-653 652 0
-653 720 0
654 -951 -651 0
-654 951 0
-654 651 0
655 -740 -706 0
-655 740 0
-655 706 0
656 -655 -807 0
-656 655 0
-656 807 0
657 -952 -654 0
-657 952 0
-657 654 0
658 -50 -18 0
-658 50 0
-658 18 0
659 -658 -19 0
-659 658 0
-659 19 0
660 -953 -657 0
-660 953 0
-660 657 0
661 -744 -717 0
-661 744 0
-661 717 0
662 -661 -8 0
-662 661 0
-662 8 0
663 -954 -660 0
-663 954 0
-663 660 0
664 -745 -777 0
-664 745 0
-664 777 0
665 -664 -807 0
-665 664 0
-665 807 0
666 -955 -663 0
-666 955 0
-666 663 0
667 -912 -764 0
-667 912 0
-667 764 0
668 -667 -45 0
-668 667 0
-668 45 0
669 -956 -666 0
-669 956 0
-669 666 0
670 -20 -10 0
-670 20 0
-670 10 0
671 -670 -43 0
-671 670 0
-671 43 0
672 -957 -669 0
-672 957 0
-672 669 0
673 -48 -6 0
-673 48 0
-673 6 0
674 -673 -28 0
-674 673 0
-674 28 0
675 -958 -672 0
-675 958 0
-675 672 0
676 -786 -19 0
-676 786 0
-676 19 0
677 -676 -21 0
-677 676 0
-677 21 0
678 -959 -675 0
-678 959 0
-678 675 0
679 -737 -9 0
-679 737 0
-679 9 0
680 -679 -800 0
-680 679 0
-680 800 0
681 -960 -678 0
-681 960 0
-681 678 0
682 -20 -13 0
-682 20 0
-682 13 0
683 -682 -762 0
-683 682 0
-683 762 0
684 -961 -681 0
-684 961 0
-684 681 0
685 -42 -28 0
-685 42 0
-685 28 0
686 -685 -3 0
-686 685 0
-686 3 0
687 -962 -684 0
-687 962 0
-687 684 0
688 -43 -710 0
-688 43 0
-688 710 0
689 -688 -1 0
-689 688 0
-689 1 0
690 -963 -687 0
-690 963 0
-690 687 0
691 -49 -4 0
-691 49 0
-691 4 0
692 -691 -807 0
-692 691 0
-692 807 0
693 -964 -690 0
-693 964 0
-693 690 0
694 -807 -1 0
-694 807 0
-694 1 0
695 -694 -2 0
-695 694 0
-695 2 0
696 -965 -693 0
-696 965 0
-696 693 0
697 -679 -777 0
-697 679 0
-697 777 0
698 -966 -696 0
-698 966 0
-698 696 0
-699 -3 0
699 3 0
-700 -6 0
700 6 0
-701 -54 0
701 54 0
-702 -52 0
702 52 0
-703 -5 0
703 5 0
-704 -8 0
704 8 0
-705 -57 0
705 57 0
-706 -10 0
706 10 0
-707 -9 0
707 9 0
-708 -60 0
708 60 0
-709 -63 0
709 63 0
-710 -15 0
710 15 0
-711 -1 0
711 1 0
-712 -16 0
712 16 0
-713 -66 0
713 66 0
-714 -69 0
714 69 0
-715 -72 0
715 72 0
-716 -75 0
716 75 0
-717 -26 0
717 26 0
-718 -27 0
718 27 0
-719 -78 0
719 78 0
-720 -13 0
720 13 0
-721 -81 0
721 81 0
-722 -11 0
722 11 0
-723 -7 0
723 7 0
-724 -29 0
724 29 0
-725 -84 0
725 84 0
-726 -24 0
726 24 0
-727 -87 0
727 87 0
-728 -90 0
728 90 0
-729 -12 0
729 12 0
-730 -28 0
730 28 0
-731 -93 0
731 93 0
-732 -96 0
732 96 0
-733 -32 0
733 32 0
-734 -99 0
734 99 0
-735 -102 0
735 102 0
-736 -105 0
736 105 0
-737 -33 0
737 33 0
-738 -36 0
738 36 0
-739 -108 0
739 108 0
-740 -37 0
740 37 0
-741 -19 0
741 19 0
-742 -111 0
742 111 0
-743 -114 0
743 114 0
-744 -40 0
744 40 0
-745 -39 0
745 39 0
-746 -41 0
746 41 0
-747 -117 0
747 117 0
-748 -120 0
748 120 0
-749 -30 0
749 30 0
-750 -123 0
750 123 0
-751 -126 0
751 126 0
-752 -129 0
752 129 0
-753 -132 0
753 132 0
-754 -25 0
754 25 0
-755 -135 0
755 135 0
-756 -138 0
756 138 0
-757 -141 0
757 141 0
-758 -144 0
758 144 0
-759 -20 0
759 20 0
-760 -147 0
760 147 0
-761 -4 0
761 4 0
-762 -22 0
762 22 0
-763 -150 0
763 150 0
-764 -44 0
764 44 0
-765 -153 0
765 153 0
-766 -156 0
766 156 0
-767 -159 0
767 159 0
-768 -34 0
768 34 0
-769 -162 0
769 162 0
-770 -165 0
770 165 0
-771 -18 0
771 18 0
-772 -168 0
772 168 0
-773 -171 0
773 171 0
-774 -174 0
774 174 0
-775 -177 0
775 177 0
-776 -42 0
776 42 0
-777 -35 0
777 35 0
-778 -180 0
778 180 0
-779 -17 0
779 17 0
-780 -183 0
780 183 0
-781 -186 0
781 186 0
-782 -189 0
782 189 0
-783 -38 0
783 38 0
-784 -192 0
784 192 0
-785 -195 0
785 195 0
-786 -46 0
786 46 0
-787 -198 0
787 198 0
-788 -201 0
788 201 0
-789 -43 0
789 43 0
-790 -203 0
790 203 0
-791 -206 0
791 206 0
-792 -47 0
792 47 0
-793 -209 0
793 209 0
-794 -14 0
794 14 0
-795 -212 0
795 212 0
-796 -215 0
796 215 0
-797 -218 0
797 218 0
-798 -221 0
798 221 0
-799 -224 0
799 224 0
-800 -23 0
800 23 0
-801 -227 0
801 227 0
-802 -230 0
802 230 0
-803 -233 0
803 233 0
-804 -236 0
804 236 0
-805 -239 0
805 239 0
-806 -242 0
806 242 0
-807 -21 0
807 21 0
-808 -245 0
808 245 0
-809 -248 0
809 248 0
-810 -251 0
810 251 0
-811 -254 0
811 254 0
-812 -257 0
812 257 0
-813 -260 0
813 260 0
-814 -2 0
814 2 0
-815 -263 0
815 263 0
-816 -48 0
816 48 0
-817 -266 0
817 266 0
-818 -269 0
818 269 0
-819 -272 0
819 272 0
-820 -275 0
820 275 0
-821 -278 0
821 278 0
-822 -280 0
822 280 0
-823 -283 0
823 283 0
-824 -286 0
824 286 0
-825 -289 0
825 289 0
-826 -292 0
826 292 0
-827 -295 0
827 295 0
-828 -298 0
828 298 0
-829 -45 0
829 45 0
-830 -301 0
830 301 0
-831 -304 0
831 304 0
-832 -307 0
832 307 0
-833 -310 0
833 310 0
-834 -313 0
834 313 0
-835 -316 0
835 316 0
-836 -319 0
836 319 0
-837 -322 0
837 322 0
-838 -325 0
838 325 0
-839 -328 0
839 328 0
-840 -331 0
840 331 0
-841 -334 0
841 334 0
-842 -337 0
842 337 0
-843 -340 0
843 340 0
-844 -343 0
844 343 0
-845 -346 0
845 346 0
-846 -349 0
846 349 0
-847 -352 0
847 352 0
-848 -355 0
848 355 0
-849 -358 0
849 358 0
-850 -361 0
850 361 0
-851 -364 0
851 364 0
-852 -367 0
852 367 0
-853 -370 0
853 370 0
-854 -373 0
854 373 0
-855 -376 0
855 376 0
-856 -379 0
856 379 0
-857 -382 0
857 382 0
-858 -385 0
858 385 0
-859 -387 0
859 387 0
-860 -390 0
860 390 0
-861 -393 0
861 393 0
-862 -396 0
862 396 0
-863 -399 0
863 399 0
-864 -402 0
864 402 0
-865 -405 0
865 405 0
-866 -408 0
866 408 0
-867 -411 0
867 411 0
-868 -414 0
868 414 0
-869 -417 0
869 417 0
-870 -420 0
870 420 0
-871 -31 0
871 31 0
-872 -423 0
872 423 0
-873 -426 0
873 426 0
-874 -49 0
874 49 0
-875 -429 0
875 429 0
-876 -432 0
876 432 0
-877 -435 0
877 435 0
-878 -438 0
878 438 0
-879 -441 0
879 441 0
-880 -444 0
880 444 0
-881 -447 0
881 447 0
-882 -450 0
882 450 0
-883 -453 0
883 453 0
-884 -456 0
884 456 0
-885 -459 0
885 459 0
-886 -462 0
886 462 0
-887 -465 0
887 465 0
-888 -468 0
888 468 0
-889 -471 0
889 471 0
-890 -474 0
890 474 0
-891 -477 0
891 477 0
-892 -480 0
892 480 0
-893 -483 0
893 483 0
-894 -486 0
894 486 0
-895 -489 0
895 489 0
-896 -492 0
896 492 0
-897 -494 0
897 494 0
-898 -497 0
898 497 0
-899 -500 0
899 500 0
-900 -503 0
900 503 0
-901 -506 0
901 506 0
-902 -509 0
902 509 0
-903 -512 0
903 512 0
-904 -515 0
904 515 0
-905 -518 0
905 518 0
-906 -521 0
906 521 0
-907 -524 0
907 524 0
-908 -527 0
908 527 0
-909 -530 0
909 530 0
-910 -533 0
910 533 0
-911 -536 0
911 536 0
-912 -50 0
912 50 0
-913 -539 0
913 539 0
-914 -542 0
914 542 0
-915 -545 0
915 545 0
-916 -548 0
916 548 0
-917 -551 0
917 551 0
-918 -554 0
918 554 0
-919 -557 0
919 557 0
-920 -560 0
920 560 0
-921 -563 0
921 563 0
-922 -566 0
922 566 0
-923 -569 0
923 569 0
-924 -572 0
924 572 0
-925 -575 0
925 575 0
-926 -578 0
926 578 0
-927 -581 0
927 581 0
-928 -584 0
928 584 0
-929 -587 0
929 587 0
-930 -590 0
930 590 0
-931 -593 0
931 593 0
-932 -596 0
932 596 0
-933 -599 0
933 599 0
-934 -602 0
934 602 0
-935 -605 0
935 605 0
-936 -608 0
936 608 0
-937 -611 0
937 611 0
-938 -614 0
938 614 0
-939 -617 0
939 617 0
-940 -620 0
940 620 0
-941 -623 0
941 623 0
-942 -626 0
942 626 0
-943 -629 0
943 629 0
-944 -632 0
944 632 0
-945 -635 0
945 635 0
-946 -638 0
946 638 0
-947 -641 0
947 641 0
-948 -644 0
948 644 0
-949 -647 0
949 647 0
-950 -650 0
950 650 0
-951 -653 0
951 653 0
-952 -656 0
952 656 0
-953 -659 0
953 659 0
-954 -662 0
954 662 0
-955 -665 0
955 665 0
-956 -668 0
956 668 0
-957 -671 0
957 671 0
-958 -674 0
958 674 0
-959 -677 0
959 677 0
-960 -680 0
960 680 0
-961 -683 0
961 683 0
-962 -686 0
962 686 0
-963 -689 0
963 689 0
-964 -692 0
964 692 0
-965 -695 0
965 695 0
-966 -697 0
966 697 0
698 0
